CPXPARAM_MIP_Tolerances_MIPGap                   0
Lazy constraint(s) or lazy constraint callback is present.
    Disabling dual reductions (CPX_PARAM_REDUCE) in presolve.
    Disabling non-linear reductions (CPX_PARAM_PRELINEAR) in presolve.
         Disabling repeat represolve because of lazy constraint/incumbent callback.
Tried aggregator 1 time.
MIP Presolve eliminated 6676 rows and 7 columns.
MIP Presolve modified 2 coefficients.
Reduced MIP has 783 rows, 6818 columns, and 1704 nonzeros.
Reduced MIP has 6224 binaries, 0 generals, 0 SOSs, and 0 indicators.
Presolve time = 0.01 sec. (4.04 ticks)
Probing time = 0.02 sec. (1.07 ticks)
Clique table members: 478.
MIP emphasis: balance optimality and feasibility.
MIP search method: traditional branch-and-cut.
Parallel mode: none, using 1 thread.
Root relaxation solution time = 0.02 sec. (2.92 ticks)

        Nodes                                         Cuts/
   Node  Left     Objective  IInf  Best Integer    Best Bound    ItCnt     Gap         Variable B NodeID Parent  Depth

      0     0        7.0000    69                      7.0000       69         
      0     0       33.0023    53                   Cuts: 295      583         
      0     0       38.0007    50                   Cuts: 103      687         
      0     0       39.0010    29                    Cuts: 41      748         
      0     0       40.0000    10                    Cuts: 35      782         
      0     0       40.0000    56                 MIRcuts: 11      815         
      0     0       40.0000     4                  Cliques: 2      816         
      0     0       40.0000     3                  MIRcuts: 1      818         
*     0+    0                           87.0000       40.0000            54.02%
      0     2       40.0000    13       87.0000       40.0000      818   54.02%                        0             0
Elapsed time = 0.42 sec. (151.51 ticks, tree = 0.01 MB, solutions = 1)
     70    50       44.0000    24       87.0000       40.0000     1471   54.02%  29T13prec37T13 D     70     69     25
    156   106       55.0000    10       87.0000       40.0000     2124   54.02%  32T14prec36T14 D    156    155     77
*   240+  131                           54.0000       40.0009            25.92%
    261   147       45.0000    17       54.0000       40.0009     3197   25.92%  23T17prec37T17 U    261    260     22
    352   218       44.0000    17       54.0000       40.0009     4106   25.92%  34T21prec38T21 U    352    350     40
    458   290       51.0000    14       54.0000       40.0009     4903   25.92%         22step2 U    458    457     31
    578   363       51.0000     3       54.0000       40.0013     6064   25.92%  24T23prec30T23 D    578    576     48
    686   432       49.0000    31       54.0000       40.0017     7344   25.92%  33T19prec37T19 D    686    685     32
    809   514       50.0000     2       54.0000       40.5002     8727   25.00%  29T23prec34T23 U    809    807     45
*   820+  380                           50.0000       40.5002            19.00%
    903   434       43.0944    52       50.0000       41.0000     9917   18.00%         36step3 U    903    902     12
*   980+  289                           46.0000       41.0000            10.87%
*  1149   220      integral     0       44.0000       41.0000    13182    6.82%
*  1160+  130                           43.0000       41.0000             4.65%
*  1166    52      integral     0       42.0000       41.0000    13247    2.38%
*  1169     1      integral     0       41.0000       41.0000    13271    0.00%

Clique cuts applied:  176
Cover cuts applied:  16
Implied bound cuts applied:  10
Mixed integer rounding cuts applied:  50
User cuts applied:  1044

Root node processing (before b&c):
  Real time             =    0.42 sec. (151.92 ticks)
Sequential b&c:
  Real time             =    4.06 sec. (2855.49 ticks)
                          ------------
Total (root+branch&cut) =    4.48 sec. (3007.40 ticks)
